 67 65 68 61 7 15 19 16 14 17 100 97 99 96 93 94 98 82 83 91 87 78 81 62 69 11 8 9 43 47 51 59 57 55 53 58 35 38 10 13 75 6 12 18 28 20 90 84 92 95 4 21 2 3 1 5 23 52 49 27 36 34 32 37 39 31 50 24 26 22 30 25 0 29 33 46 48 42 45 44 41 72 74 70 71 76 73 80 79 77 88 89 64 40 54 56 60 66 85 86 63 
